463,248
672,434
597,322
1020,160
1162,161
1055,596
654,491
269,107
453,332
823,452
935,660
390,617
710,402
417,42
792,748
646,454
857,164
441,528
875,547
617,605
898,-21
808,533
756,-68
841,325
629,478
966,314
450,860
639,364
921,528
1108,267
474,374
742,791
850,529
399,18
681,436
